c defined variables: 33 34 35 36 37 38 39 40 41 42 43 44 45 46 47 48 49 50 51 52 53 54 55 56 57 58 59 60 61 62 63 64 65 66 67 68 69 70 71 72 73 74 75 76 77 78 79 80 81 82 83 84 85 86 87 88 89 90 91 92 93 94 95 96 97 98 99 100 101 102 103 104 105 106 107 108 109 110 111 112 113 114 115 116 117 118 119 120 121 122 123 124 125 126 127 128 129 130 131 132 133 134 135 136 137 138 139 140 141 142 143 144 145 146 147 148 149 150 151 152 153 154 155 156 157 158 159 160 161 162 163 164 165 166 167 190 191 192 193 194 195 196 197 198 199 200 201 202 203 204 205 206 207 208 209 210 211 212 213 214 215 216 217 218 219 220 221 222 223 224 225 226 227 228 229 230 231 233 234 236 237 238 239 241 242 243 244 247 248 249 250 251 252 253 254 255 256 257 258 259 260 261 262 264 265 266 267 268 269 270 271 272 273 274 275 276 277 278 280 281 282 283 284 285 286 287 288 289 290 291 292 293 294 295 296 297 298 299 300 301 302 303 304 305 306 307 309 310 311 312 313 314 315 316 317 318 319 320 322 323 324 325 326 327 328 
p cnf 1457 2192
a 1 2 3 4 5 6 7 8 9 10 11 12 13 14 15 16 17 18 19 20 21 22 23 24 25 26 27 28 29 30 31 32 174 175 176 177 178 179 180 181 182 183 184 185 186 187 188 189 0
e 33 34 35 36 37 38 39 40 41 42 43 44 45 46 47 48 49 50 51 52 53 54 55 56 57 58 59 60 61 62 63 64 65 66 67 68 69 70 71 72 73 74 75 76 77 78 79 80 81 82 83 84 85 86 87 88 89 90 91 92 93 94 95 96 97 98 99 100 101 102 103 104 105 106 107 108 109 110 111 112 113 114 115 116 117 118 119 120 121 122 123 124 125 126 127 128 129 130 131 132 133 134 135 136 137 138 139 140 141 142 143 144 145 146 147 148 149 150 151 152 153 154 155 156 157 158 159 160 161 162 163 164 165 166 167 190 191 192 193 194 195 196 197 198 199 200 201 202 203 204 205 206 207 208 209 210 211 212 213 214 215 216 217 218 219 220 221 222 223 224 225 226 227 228 229 230 231 233 234 236 237 238 239 241 242 243 244 247 248 249 250 251 252 253 254 255 256 257 258 259 260 261 262 264 265 266 267 268 269 270 271 272 273 274 275 276 277 278 280 281 282 283 284 285 286 287 288 289 290 291 292 293 294 295 296 297 298 299 300 301 302 303 304 305 306 307 309 310 311 312 313 314 315 316 317 318 319 320 322 323 324 325 326 327 328 1191 1192 1193 1194 1195 1196 1197 1198 1199 1200 1201 1202 1203 1204 1205 1206 1207 1208 1209 1210 1211 1212 1213 1214 1215 1216 1217 1218 1219 1220 1221 1222 1223 1224 1225 1226 1227 1228 1229 1230 1231 1232 1233 1234 1235 1236 1237 1238 1239 1240 1241 1242 1243 1244 1245 1246 1247 1248 1249 1250 1251 1252 1253 1254 1255 1256 1257 1258 1259 1260 1261 1262 1263 1264 1265 1266 1267 1268 1269 1270 1271 1272 1273 1274 1275 1276 1277 1278 1279 1280 1281 1282 1283 1284 1285 1286 1287 1288 1289 1290 1291 1292 1293 1294 1295 1296 1297 1298 1299 1300 1301 1302 1303 1304 1305 1306 1307 1308 1309 1310 1311 1312 1313 1314 1315 1316 1317 1318 1319 1320 1321 1322 1323 1324 1325 1326 1327 1328 1329 1330 1331 1332 1333 1334 1335 1336 1337 1338 1339 1340 1341 1342 1343 1344 1345 1346 1347 1348 1349 1350 1351 1352 1353 1354 1355 1356 1357 1358 1359 1360 1361 1362 1363 1364 1365 1366 1367 1368 1369 1370 1371 1372 1373 1374 1375 1376 1377 1378 1379 1380 1381 1382 1383 1384 1385 1386 1387 1388 1389 1390 1391 1392 1393 1394 1395 1396 1397 1398 1399 1400 1401 1402 1403 1404 1405 1406 1407 1408 1409 1410 1411 1412 1413 1414 1415 1416 1417 1418 1419 1420 1421 1422 1423 1424 1425 1426 1427 1428 1429 1430 1431 1432 1433 1434 1435 1436 1437 1438 1439 1440 1441 1442 1443 1444 1445 1446 1447 1448 1449 1450 1451 1452 1453 1454 1455 1456 1457 0
d 168 174 175 0
d 169 178 179 0
d 170 176 177 0
d 171 180 181 0
d 172 182 183 184 185 186 187 188 189 0
d 173 182 183 184 185 186 187 188 189 0
d 232 1 2 3 4 5 6 7 8 9 10 11 12 13 14 15 16 17 18 19 20 21 22 23 24 25 26 27 28 29 30 31 32 174 175 176 177 178 179 180 181 182 183 184 185 186 187 188 189 0
d 235 1 2 3 4 5 6 7 8 9 10 11 12 13 14 15 16 17 18 19 20 21 22 23 24 25 26 27 28 29 30 31 32 174 175 176 177 178 179 180 181 182 183 184 185 186 187 188 189 0
d 240 1 2 3 4 5 6 7 8 9 10 11 12 13 14 15 16 17 18 19 20 21 22 23 24 25 26 27 28 29 30 31 32 174 175 176 177 178 179 180 181 182 183 184 185 186 187 188 189 0
d 245 1 2 3 4 5 6 7 8 9 10 11 12 13 14 15 16 17 18 19 20 21 22 23 24 25 26 27 28 29 30 31 32 174 175 176 177 178 179 180 181 182 183 184 185 186 187 188 189 0
d 246 1 2 3 4 5 6 7 8 9 10 11 12 13 14 15 16 17 18 19 20 21 22 23 24 25 26 27 28 29 30 31 32 174 175 176 177 178 179 180 181 182 183 184 185 186 187 188 189 0
d 263 1 2 3 4 5 6 7 8 9 10 11 12 13 14 15 16 17 18 19 20 21 22 23 24 25 26 27 28 29 30 31 32 174 175 176 177 178 179 180 181 182 183 184 185 186 187 188 189 0
d 279 1 2 3 4 5 6 7 8 9 10 11 12 13 14 15 16 17 18 19 20 21 22 23 24 25 26 27 28 29 30 31 32 174 175 176 177 178 179 180 181 182 183 184 185 186 187 188 189 0
d 308 1 2 3 4 5 6 7 8 9 10 11 12 13 14 15 16 17 18 19 20 21 22 23 24 25 26 27 28 29 30 31 32 174 175 176 177 178 179 180 181 182 183 184 185 186 187 188 189 0
d 321 1 2 3 4 5 6 7 8 9 10 11 12 13 14 15 16 17 18 19 20 21 22 23 24 25 26 27 28 29 30 31 32 174 175 176 177 178 179 180 181 182 183 184 185 186 187 188 189 0
1191 -33 0
-1191 33 0
1192 -34 0
-1192 34 0
-1193 -35 0
1193 35 0
1194 -36 0
-1194 36 0
1195 -37 0
-1195 37 0
-1196 -38 0
1196 38 0
1197 -39 0
-1197 39 0
1198 -40 0
-1198 40 0
-1199 -41 0
1199 41 0
-12 -42 0
12 42 0
-1200 -43 0
1200 43 0
-11 -44 0
11 44 0
-1201 -45 0
1201 45 0
-10 -46 0
10 46 0
-1202 -47 0
1202 47 0
-9 -48 0
9 48 0
-1203 -49 0
1203 49 0
-49 -50 0
49 50 0
1204 -51 0
-1204 51 0
1206 -52 0
-1206 52 0
1208 -53 0
-1208 53 0
-1211 -54 0
1211 54 0
1212 -55 0
-1212 55 0
1213 -56 0
-1213 56 0
-1214 -57 0
1214 57 0
1215 -58 0
-1215 58 0
1216 -59 0
-1216 59 0
1217 -60 0
-1217 60 0
1218 -61 0
-1218 61 0
-1219 -62 0
1219 62 0
1220 -63 0
-1220 63 0
1221 -64 0
-1221 64 0
-1222 -65 0
1222 65 0
1223 -66 0
-1223 66 0
1224 -67 0
-1224 67 0
-1225 -68 0
1225 68 0
1226 -69 0
-1226 69 0
1227 -70 0
-1227 70 0
-1228 -71 0
1228 71 0
-8 -72 0
8 72 0
-1229 -73 0
1229 73 0
-7 -74 0
7 74 0
-1230 -75 0
1230 75 0
-6 -76 0
6 76 0
-1231 -77 0
1231 77 0
-5 -78 0
5 78 0
-1232 -79 0
1232 79 0
-79 -80 0
79 80 0
1233 -81 0
-1233 81 0
1235 -82 0
-1235 82 0
1237 -83 0
-1237 83 0
-1240 -84 0
1240 84 0
1241 -85 0
-1241 85 0
1242 -86 0
-1242 86 0
-1243 -87 0
1243 87 0
1244 -88 0
-1244 88 0
1245 -89 0
-1245 89 0
1246 -90 0
-1246 90 0
1247 -91 0
-1247 91 0
-1248 -92 0
1248 92 0
1249 -93 0
-1249 93 0
1250 -94 0
-1250 94 0
-1251 -95 0
1251 95 0
1252 -96 0
-1252 96 0
1253 -97 0
-1253 97 0
-1254 -98 0
1254 98 0
1255 -99 0
-1255 99 0
1256 -100 0
-1256 100 0
-1257 -101 0
1257 101 0
-4 -102 0
4 102 0
-1258 -103 0
1258 103 0
-3 -104 0
3 104 0
-1259 -105 0
1259 105 0
-2 -106 0
2 106 0
-1260 -107 0
1260 107 0
-1 -108 0
1 108 0
-1261 -109 0
1261 109 0
-109 -110 0
109 110 0
1262 -111 0
-1262 111 0
1264 -112 0
-1264 112 0
1266 -113 0
-1266 113 0
-1269 -114 0
1269 114 0
1270 -115 0
-1270 115 0
1271 -116 0
-1271 116 0
-1272 -117 0
1272 117 0
1273 -118 0
-1273 118 0
1274 -119 0
-1274 119 0
1275 -120 0
-1275 120 0
1276 -121 0
-1276 121 0
-1277 -122 0
1277 122 0
1278 -123 0
-1278 123 0
1279 -124 0
-1279 124 0
-1280 -125 0
1280 125 0
1281 -126 0
-1281 126 0
1282 -127 0
-1282 127 0
-1283 -128 0
1283 128 0
1284 -129 0
-1284 129 0
1285 -130 0
-1285 130 0
-1286 -131 0
1286 131 0
-16 -132 0
16 132 0
-1287 -133 0
1287 133 0
-15 -134 0
15 134 0
-1288 -135 0
1288 135 0
-14 -136 0
14 136 0
-1289 -137 0
1289 137 0
-13 -138 0
13 138 0
-1290 -139 0
1290 139 0
-139 -140 0
139 140 0
1291 -141 0
-1291 141 0
1293 -142 0
-1293 142 0
1295 -143 0
-1295 143 0
-1298 -144 0
1298 144 0
1299 -145 0
-1299 145 0
1300 -146 0
-1300 146 0
-1301 -147 0
1301 147 0
1302 -148 0
-1302 148 0
1303 -149 0
-1303 149 0
-144 -150 0
144 150 0
-1304 -151 0
1304 151 0
-54 -152 0
54 152 0
-1305 -153 0
1305 153 0
-84 -154 0
84 154 0
-1306 -155 0
1306 155 0
-114 -156 0
114 156 0
-1307 -157 0
1307 157 0
-157 -158 0
157 158 0
1308 -159 0
-1308 159 0
1310 -160 0
-1310 160 0
1312 -161 0
-1312 161 0
-1315 -162 0
1315 162 0
1316 -163 0
-1316 163 0
1317 -164 0
-1317 164 0
-1318 -165 0
1318 165 0
1319 -166 0
-1319 166 0
1320 -167 0
-1320 167 0
1191 -190 0
-1191 190 0
1192 -191 0
-1192 191 0
-1321 -192 0
1321 192 0
1194 -193 0
-1194 193 0
1195 -194 0
-1195 194 0
-1322 -195 0
1322 195 0
1197 -196 0
-1197 196 0
1198 -197 0
-1198 197 0
-1323 -198 0
1323 198 0
-12 -199 0
12 199 0
-1324 -200 0
1324 200 0
-11 -201 0
11 201 0
-1325 -202 0
1325 202 0
-10 -203 0
10 203 0
-1326 -204 0
1326 204 0
-9 -205 0
9 205 0
-1327 -206 0
1327 206 0
-206 -207 0
206 207 0
1328 -208 0
-1328 208 0
1330 -209 0
-1330 209 0
1332 -210 0
-1332 210 0
-1335 -211 0
1335 211 0
1212 -212 0
-1212 212 0
1213 -213 0
-1213 213 0
-1336 -214 0
1336 214 0
1337 -215 0
-1337 215 0
1338 -216 0
-1338 216 0
1339 -217 0
-1339 217 0
1340 -218 0
-1340 218 0
-1341 -219 0
1341 219 0
1223 -220 0
-1223 220 0
1224 -221 0
-1224 221 0
-1342 -222 0
1342 222 0
1226 -223 0
-1226 223 0
1227 -224 0
-1227 224 0
-1343 -225 0
1343 225 0
-8 -226 0
8 226 0
-1344 -227 0
1344 227 0
-7 -228 0
7 228 0
-1345 -229 0
1345 229 0
-6 -230 0
6 230 0
-1346 -231 0
1346 231 0
1347 -233 0
-1347 233 0
1349 -234 0
-1349 234 0
-1352 -236 0
1352 236 0
1241 -237 0
-1241 237 0
1242 -238 0
-1242 238 0
-1353 -239 0
1353 239 0
1354 -241 0
-1354 241 0
1355 -242 0
-1355 242 0
1356 -243 0
-1356 243 0
-1357 -244 0
1357 244 0
-1358 -247 0
1358 247 0
1278 -248 0
-1278 248 0
1279 -249 0
-1279 249 0
-1359 -250 0
1359 250 0
1281 -251 0
-1281 251 0
1282 -252 0
-1282 252 0
-1360 -253 0
1360 253 0
1284 -254 0
-1284 254 0
1285 -255 0
-1285 255 0
-1361 -256 0
1361 256 0
-16 -257 0
16 257 0
-1362 -258 0
1362 258 0
-15 -259 0
15 259 0
-1363 -260 0
1363 260 0
-14 -261 0
14 261 0
-1364 -262 0
1364 262 0
1365 -264 0
-1365 264 0
1367 -265 0
-1367 265 0
1369 -266 0
-1369 266 0
-1372 -267 0
1372 267 0
1299 -268 0
-1299 268 0
1300 -269 0
-1300 269 0
-1373 -270 0
1373 270 0
1374 -271 0
-1374 271 0
1375 -272 0
-1375 272 0
-267 -273 0
267 273 0
-1376 -274 0
1376 274 0
-211 -275 0
211 275 0
-1377 -276 0
1377 276 0
-236 -277 0
236 277 0
-1378 -278 0
1378 278 0
-1379 -280 0
1379 280 0
-280 -281 0
280 281 0
1380 -282 0
-1380 282 0
1382 -283 0
-1382 283 0
1384 -284 0
-1384 284 0
-1387 -285 0
1387 285 0
1388 -286 0
-1388 286 0
1389 -287 0
-1389 287 0
-1390 -288 0
1390 288 0
1391 -289 0
-1391 289 0
1392 -290 0
-1392 290 0
1252 -291 0
-1252 291 0
1253 -292 0
-1253 292 0
-1393 -293 0
1393 293 0
1255 -294 0
-1255 294 0
1256 -295 0
-1256 295 0
-1394 -296 0
1394 296 0
-4 -297 0
4 297 0
-1395 -298 0
1395 298 0
-3 -299 0
3 299 0
-1396 -300 0
1396 300 0
-2 -301 0
2 301 0
-1397 -302 0
1397 302 0
-1 -303 0
1 303 0
-1398 -304 0
1398 304 0
1270 -305 0
-1270 305 0
1271 -306 0
-1271 306 0
-1399 -307 0
1399 307 0
1402 -309 0
-1402 309 0
1405 -310 0
-1405 310 0
1408 -311 0
-1408 311 0
1410 -312 0
-1410 312 0
1413 -313 0
-1413 313 0
1416 -314 0
-1416 314 0
1419 -315 0
-1419 315 0
1422 -316 0
-1422 316 0
1425 -317 0
-1425 317 0
1428 -318 0
-1428 318 0
1431 -319 0
-1431 319 0
1434 -320 0
-1434 320 0
1437 -322 0
-1437 322 0
1440 -323 0
-1440 323 0
1445 -324 0
-1445 324 0
1448 -325 0
-1448 325 0
-1451 -326 0
1451 326 0
-1454 -327 0
1454 327 0
1457 -328 0
-1457 328 0
-33 -11 0
-33 27 0
11 -27 33 0
-34 11 0
-34 -27 0
-11 27 34 0
-33 35 0
-34 35 0
-35 33 34 0
-36 -10 0
-36 26 0
10 -26 36 0
-37 10 0
-37 -26 0
-10 26 37 0
-36 38 0
-37 38 0
-38 36 37 0
-39 -9 0
-39 25 0
9 -25 39 0
-40 9 0
-40 -25 0
-9 25 40 0
-39 41 0
-40 41 0
-41 39 40 0
-12 -42 0
12 42 0
-42 43 0
-28 43 0
-43 42 28 0
-11 -44 0
11 44 0
-44 45 0
-27 45 0
-45 44 27 0
-10 -46 0
10 46 0
-46 47 0
-26 47 0
-47 46 26 0
-9 -48 0
9 48 0
-48 49 0
-25 49 0
-49 48 25 0
-49 -50 0
49 50 0
-51 -41 0
-51 -47 0
41 47 51 0
-52 -38 0
-52 -41 0
-52 -45 0
38 41 45 52 0
-53 -35 0
-53 -38 0
-53 -41 0
-53 -43 0
35 38 41 43 53 0
-50 54 0
-51 54 0
-52 54 0
-53 54 0
-54 50 51 52 53 0
-55 -12 0
-55 28 0
12 -28 55 0
-56 12 0
-56 -28 0
-12 28 56 0
-55 57 0
-56 57 0
-57 55 56 0
-58 -57 0
-58 -35 0
-58 -38 0
-58 -41 0
57 35 38 41 58 0
-59 -54 0
-59 -58 0
54 58 59 0
-60 -54 0
-60 59 0
54 -59 60 0
-61 54 0
-61 -59 0
-54 59 61 0
-60 62 0
-61 62 0
-62 60 61 0
-63 -7 0
-63 23 0
7 -23 63 0
-64 7 0
-64 -23 0
-7 23 64 0
-63 65 0
-64 65 0
-65 63 64 0
-66 -6 0
-66 22 0
6 -22 66 0
-67 6 0
-67 -22 0
-6 22 67 0
-66 68 0
-67 68 0
-68 66 67 0
-69 -5 0
-69 21 0
5 -21 69 0
-70 5 0
-70 -21 0
-5 21 70 0
-69 71 0
-70 71 0
-71 69 70 0
-8 -72 0
8 72 0
-72 73 0
-24 73 0
-73 72 24 0
-7 -74 0
7 74 0
-74 75 0
-23 75 0
-75 74 23 0
-6 -76 0
6 76 0
-76 77 0
-22 77 0
-77 76 22 0
-5 -78 0
5 78 0
-78 79 0
-21 79 0
-79 78 21 0
-79 -80 0
79 80 0
-81 -71 0
-81 -77 0
71 77 81 0
-82 -68 0
-82 -71 0
-82 -75 0
68 71 75 82 0
-83 -65 0
-83 -68 0
-83 -71 0
-83 -73 0
65 68 71 73 83 0
-80 84 0
-81 84 0
-82 84 0
-83 84 0
-84 80 81 82 83 0
-85 -8 0
-85 24 0
8 -24 85 0
-86 8 0
-86 -24 0
-8 24 86 0
-85 87 0
-86 87 0
-87 85 86 0
-88 -87 0
-88 -65 0
-88 -68 0
-88 -71 0
87 65 68 71 88 0
-89 -84 0
-89 -88 0
84 88 89 0
-90 -84 0
-90 89 0
84 -89 90 0
-91 84 0
-91 -89 0
-84 89 91 0
-90 92 0
-91 92 0
-92 90 91 0
-93 -3 0
-93 19 0
3 -19 93 0
-94 3 0
-94 -19 0
-3 19 94 0
-93 95 0
-94 95 0
-95 93 94 0
-96 -2 0
-96 18 0
2 -18 96 0
-97 2 0
-97 -18 0
-2 18 97 0
-96 98 0
-97 98 0
-98 96 97 0
-99 -1 0
-99 17 0
1 -17 99 0
-100 1 0
-100 -17 0
-1 17 100 0
-99 101 0
-100 101 0
-101 99 100 0
-4 -102 0
4 102 0
-102 103 0
-20 103 0
-103 102 20 0
-3 -104 0
3 104 0
-104 105 0
-19 105 0
-105 104 19 0
-2 -106 0
2 106 0
-106 107 0
-18 107 0
-107 106 18 0
-1 -108 0
1 108 0
-108 109 0
-17 109 0
-109 108 17 0
-109 -110 0
109 110 0
-111 -101 0
-111 -107 0
101 107 111 0
-112 -98 0
-112 -101 0
-112 -105 0
98 101 105 112 0
-113 -95 0
-113 -98 0
-113 -101 0
-113 -103 0
95 98 101 103 113 0
-110 114 0
-111 114 0
-112 114 0
-113 114 0
-114 110 111 112 113 0
-115 -4 0
-115 20 0
4 -20 115 0
-116 4 0
-116 -20 0
-4 20 116 0
-115 117 0
-116 117 0
-117 115 116 0
-118 -117 0
-118 -95 0
-118 -98 0
-118 -101 0
117 95 98 101 118 0
-119 -114 0
-119 -118 0
114 118 119 0
-120 -114 0
-120 119 0
114 -119 120 0
-121 114 0
-121 -119 0
-114 119 121 0
-120 122 0
-121 122 0
-122 120 121 0
-123 -15 0
-123 31 0
15 -31 123 0
-124 15 0
-124 -31 0
-15 31 124 0
-123 125 0
-124 125 0
-125 123 124 0
-126 -14 0
-126 30 0
14 -30 126 0
-127 14 0
-127 -30 0
-14 30 127 0
-126 128 0
-127 128 0
-128 126 127 0
-129 -13 0
-129 29 0
13 -29 129 0
-130 13 0
-130 -29 0
-13 29 130 0
-129 131 0
-130 131 0
-131 129 130 0
-16 -132 0
16 132 0
-132 133 0
-32 133 0
-133 132 32 0
-15 -134 0
15 134 0
-134 135 0
-31 135 0
-135 134 31 0
-14 -136 0
14 136 0
-136 137 0
-30 137 0
-137 136 30 0
-13 -138 0
13 138 0
-138 139 0
-29 139 0
-139 138 29 0
-139 -140 0
139 140 0
-141 -131 0
-141 -137 0
131 137 141 0
-142 -128 0
-142 -131 0
-142 -135 0
128 131 135 142 0
-143 -125 0
-143 -128 0
-143 -131 0
-143 -133 0
125 128 131 133 143 0
-140 144 0
-141 144 0
-142 144 0
-143 144 0
-144 140 141 142 143 0
-145 -16 0
-145 32 0
16 -32 145 0
-146 16 0
-146 -32 0
-16 32 146 0
-145 147 0
-146 147 0
-147 145 146 0
-148 -147 0
-148 -125 0
-148 -128 0
-148 -131 0
147 125 128 131 148 0
-149 -144 0
-149 -148 0
144 148 149 0
-144 -150 0
144 150 0
-150 151 0
-149 151 0
-151 150 149 0
-54 -152 0
54 152 0
-152 153 0
-59 153 0
-153 152 59 0
-84 -154 0
84 154 0
-154 155 0
-89 155 0
-155 154 89 0
-114 -156 0
114 156 0
-156 157 0
-119 157 0
-157 156 119 0
-157 -158 0
157 158 0
-159 -122 0
-159 -155 0
122 155 159 0
-160 -92 0
-160 -122 0
-160 -153 0
92 122 153 160 0
-161 -62 0
-161 -92 0
-161 -122 0
-161 -151 0
62 92 122 151 161 0
-158 162 0
-159 162 0
-160 162 0
-161 162 0
-162 158 159 160 161 0
-163 -144 0
-163 149 0
144 -149 163 0
-164 144 0
-164 -149 0
-144 149 164 0
-163 165 0
-164 165 0
-165 163 164 0
-166 -165 0
-166 -62 0
-166 -92 0
-166 -122 0
165 62 92 122 166 0
-167 -162 0
-167 -166 0
162 166 167 0
-190 -11 0
-190 27 0
11 -27 190 0
-191 11 0
-191 -27 0
-11 27 191 0
-190 192 0
-191 192 0
-192 190 191 0
-193 -10 0
-193 26 0
10 -26 193 0
-194 10 0
-194 -26 0
-10 26 194 0
-193 195 0
-194 195 0
-195 193 194 0
-196 -9 0
-196 25 0
9 -25 196 0
-197 9 0
-197 -25 0
-9 25 197 0
-196 198 0
-197 198 0
-198 196 197 0
-12 -199 0
12 199 0
-199 200 0
-28 200 0
-200 199 28 0
-11 -201 0
11 201 0
-201 202 0
-27 202 0
-202 201 27 0
-10 -203 0
10 203 0
-203 204 0
-26 204 0
-204 203 26 0
-9 -205 0
9 205 0
-205 206 0
-25 206 0
-206 205 25 0
-206 -207 0
206 207 0
-208 -198 0
-208 -204 0
198 204 208 0
-209 -195 0
-209 -198 0
-209 -202 0
195 198 202 209 0
-210 -192 0
-210 -195 0
-210 -198 0
-210 -200 0
192 195 198 200 210 0
-207 211 0
-208 211 0
-209 211 0
-210 211 0
-211 207 208 209 210 0
-212 -12 0
-212 28 0
12 -28 212 0
-213 12 0
-213 -28 0
-12 28 213 0
-212 214 0
-213 214 0
-214 212 213 0
-215 -214 0
-215 -192 0
-215 -195 0
-215 -198 0
214 192 195 198 215 0
-216 -211 0
-216 -215 0
211 215 216 0
-217 -211 0
-217 216 0
211 -216 217 0
-218 211 0
-218 -216 0
-211 216 218 0
-217 219 0
-218 219 0
-219 217 218 0
-220 -6 0
-220 22 0
6 -22 220 0
-221 6 0
-221 -22 0
-6 22 221 0
-220 222 0
-221 222 0
-222 220 221 0
-223 -5 0
-223 21 0
5 -21 223 0
-224 5 0
-224 -21 0
-5 21 224 0
-223 225 0
-224 225 0
-225 223 224 0
-8 -226 0
8 226 0
-226 227 0
-24 227 0
-227 226 24 0
-7 -228 0
7 228 0
-228 229 0
-23 229 0
-229 228 23 0
-6 -230 0
6 230 0
-230 231 0
-22 231 0
-231 230 22 0
-170 -232 0
170 232 0
-233 -225 0
-233 -231 0
225 231 233 0
-234 -222 0
-234 -225 0
-234 -229 0
222 225 229 234 0
-235 -169 0
-235 -222 0
-235 -225 0
-235 -227 0
169 222 225 227 235 0
-232 236 0
-233 236 0
-234 236 0
-235 236 0
-236 232 233 234 235 0
-237 -8 0
-237 24 0
8 -24 237 0
-238 8 0
-238 -24 0
-8 24 238 0
-237 239 0
-238 239 0
-239 237 238 0
-240 -239 0
-240 -169 0
-240 -222 0
-240 -225 0
239 169 222 225 240 0
-241 -236 0
-241 -240 0
236 240 241 0
-242 -236 0
-242 241 0
236 -241 242 0
-243 236 0
-243 -241 0
-236 241 243 0
-242 244 0
-243 244 0
-244 242 243 0
-245 -173 0
-245 172 0
173 -172 245 0
-246 173 0
-246 -172 0
-173 172 246 0
-245 247 0
-246 247 0
-247 245 246 0
-248 -15 0
-248 31 0
15 -31 248 0
-249 15 0
-249 -31 0
-15 31 249 0
-248 250 0
-249 250 0
-250 248 249 0
-251 -14 0
-251 30 0
14 -30 251 0
-252 14 0
-252 -30 0
-14 30 252 0
-251 253 0
-252 253 0
-253 251 252 0
-254 -13 0
-254 29 0
13 -29 254 0
-255 13 0
-255 -29 0
-13 29 255 0
-254 256 0
-255 256 0
-256 254 255 0
-16 -257 0
16 257 0
-257 258 0
-32 258 0
-258 257 32 0
-15 -259 0
15 259 0
-259 260 0
-31 260 0
-260 259 31 0
-14 -261 0
14 261 0
-261 262 0
-30 262 0
-262 261 30 0
-171 -263 0
171 263 0
-264 -256 0
-264 -262 0
256 262 264 0
-265 -253 0
-265 -256 0
-265 -260 0
253 256 260 265 0
-266 -250 0
-266 -253 0
-266 -256 0
-266 -258 0
250 253 256 258 266 0
-263 267 0
-264 267 0
-265 267 0
-266 267 0
-267 263 264 265 266 0
-268 -16 0
-268 32 0
16 -32 268 0
-269 16 0
-269 -32 0
-16 32 269 0
-268 270 0
-269 270 0
-270 268 269 0
-271 -270 0
-271 -250 0
-271 -253 0
-271 -256 0
270 250 253 256 271 0
-272 -267 0
-272 -271 0
267 271 272 0
-267 -273 0
267 273 0
-273 274 0
-272 274 0
-274 273 272 0
-211 -275 0
211 275 0
-275 276 0
-216 276 0
-276 275 216 0
-236 -277 0
236 277 0
-277 278 0
-241 278 0
-278 277 241 0
-173 -279 0
173 279 0
-279 280 0
-172 280 0
-280 279 172 0
-280 -281 0
280 281 0
-282 -247 0
-282 -278 0
247 278 282 0
-283 -244 0
-283 -247 0
-283 -276 0
244 247 276 283 0
-284 -219 0
-284 -244 0
-284 -247 0
-284 -274 0
219 244 247 274 284 0
-281 285 0
-282 285 0
-283 285 0
-284 285 0
-285 281 282 283 284 0
-286 -267 0
-286 272 0
267 -272 286 0
-287 267 0
-287 -272 0
-267 272 287 0
-286 288 0
-287 288 0
-288 286 287 0
-289 -288 0
-289 -219 0
-289 -244 0
-289 -247 0
288 219 244 247 289 0
-290 -285 0
-290 -289 0
285 289 290 0
-291 -2 0
-291 18 0
2 -18 291 0
-292 2 0
-292 -18 0
-2 18 292 0
-291 293 0
-292 293 0
-293 291 292 0
-294 -1 0
-294 17 0
1 -17 294 0
-295 1 0
-295 -17 0
-1 17 295 0
-294 296 0
-295 296 0
-296 294 295 0
-4 -297 0
4 297 0
-297 298 0
-20 298 0
-298 297 20 0
-3 -299 0
3 299 0
-299 300 0
-19 300 0
-300 299 19 0
-2 -301 0
2 301 0
-301 302 0
-18 302 0
-302 301 18 0
-1 -303 0
1 303 0
-303 304 0
-17 304 0
-304 303 17 0
-305 -4 0
-305 20 0
4 -20 305 0
-306 4 0
-306 -20 0
-4 20 306 0
-305 307 0
-306 307 0
-307 305 306 0
-308 -307 0
-308 -168 0
-308 -293 0
-308 -296 0
307 168 293 296 308 0
-309 -167 290 0
-309 167 -290 0
309 -167 -290 0
309 167 290 0
-310 -166 289 0
-310 166 -289 0
310 -166 -289 0
310 166 289 0
-311 -162 285 0
-311 162 -285 0
311 -162 -285 0
311 162 285 0
-309 -310 -311 312 0
-312 309 0
-312 310 0
-312 311 0
-3 -174 -313 0
-3 174 313 0
3 -174 313 0
3 174 -313 0
-19 -175 -314 0
-19 175 314 0
19 -175 314 0
19 175 -314 0
-5 -176 -315 0
-5 176 315 0
5 -176 315 0
5 176 -315 0
-21 -177 -316 0
-21 177 316 0
21 -177 316 0
21 177 -316 0
-7 -178 -317 0
-7 178 317 0
7 -178 317 0
7 178 -317 0
-23 -179 -318 0
-23 179 318 0
23 -179 318 0
23 179 -318 0
-13 -180 -319 0
-13 180 319 0
13 -180 319 0
13 180 -319 0
-29 -181 -320 0
-29 181 320 0
29 -181 320 0
29 181 -320 0
-168 -182 -321 0
-168 182 321 0
168 -182 321 0
168 182 -321 0
-293 -183 -322 0
-293 183 322 0
293 -183 322 0
293 183 -322 0
-296 -184 -323 0
-296 184 323 0
296 -184 323 0
296 184 -323 0
-298 -185 -324 0
-298 185 324 0
298 -185 324 0
298 185 -324 0
-300 -186 -325 0
-300 186 325 0
300 -186 325 0
300 186 -325 0
-302 -187 -326 0
-302 187 326 0
302 -187 326 0
302 187 -326 0
-304 -188 -327 0
-304 188 327 0
304 -188 327 0
304 188 -327 0
-308 -189 -328 0
-308 189 328 0
308 -189 328 0
308 189 -328 0
313 314 315 316 317 318 319 320 321 322 323 324 325 326 327 328 312 0
-11 -1191 0
27 -1191 0
11 -27 1191 0
11 -1192 0
-27 -1192 0
-11 27 1192 0
-33 -1193 0
-34 -1193 0
33 34 1193 0
-10 -1194 0
26 -1194 0
10 -26 1194 0
10 -1195 0
-26 -1195 0
-10 26 1195 0
-36 -1196 0
-37 -1196 0
36 37 1196 0
-9 -1197 0
25 -1197 0
9 -25 1197 0
9 -1198 0
-25 -1198 0
-9 25 1198 0
-39 -1199 0
-40 -1199 0
39 40 1199 0
-28 -1200 0
-42 -1200 0
28 42 1200 0
-27 -1201 0
-44 -1201 0
27 44 1201 0
-26 -1202 0
-46 -1202 0
26 46 1202 0
-25 -1203 0
-48 -1203 0
25 48 1203 0
-41 -1204 0
-47 -1204 0
41 47 1204 0
-38 -1205 0
-41 -1205 0
38 41 1205 0
-45 -1206 0
1205 -1206 0
45 -1205 1206 0
-35 -1207 0
1205 -1207 0
35 -1205 1207 0
-43 -1208 0
1207 -1208 0
43 -1207 1208 0
-50 -1209 0
-51 -1209 0
50 51 1209 0
-52 -1210 0
-53 -1210 0
52 53 1210 0
1209 -1211 0
1210 -1211 0
-1209 -1210 1211 0
-12 -1212 0
28 -1212 0
12 -28 1212 0
12 -1213 0
-28 -1213 0
-12 28 1213 0
-55 -1214 0
-56 -1214 0
55 56 1214 0
-57 -1215 0
1207 -1215 0
57 -1207 1215 0
-54 -1216 0
-58 -1216 0
54 58 1216 0
-54 -1217 0
59 -1217 0
54 -59 1217 0
54 -1218 0
-59 -1218 0
-54 59 1218 0
-60 -1219 0
-61 -1219 0
60 61 1219 0
-7 -1220 0
23 -1220 0
7 -23 1220 0
7 -1221 0
-23 -1221 0
-7 23 1221 0
-63 -1222 0
-64 -1222 0
63 64 1222 0
-6 -1223 0
22 -1223 0
6 -22 1223 0
6 -1224 0
-22 -1224 0
-6 22 1224 0
-66 -1225 0
-67 -1225 0
66 67 1225 0
-5 -1226 0
21 -1226 0
5 -21 1226 0
5 -1227 0
-21 -1227 0
-5 21 1227 0
-69 -1228 0
-70 -1228 0
69 70 1228 0
-24 -1229 0
-72 -1229 0
24 72 1229 0
-23 -1230 0
-74 -1230 0
23 74 1230 0
-22 -1231 0
-76 -1231 0
22 76 1231 0
-21 -1232 0
-78 -1232 0
21 78 1232 0
-71 -1233 0
-77 -1233 0
71 77 1233 0
-68 -1234 0
-71 -1234 0
68 71 1234 0
-75 -1235 0
1234 -1235 0
75 -1234 1235 0
-65 -1236 0
1234 -1236 0
65 -1234 1236 0
-73 -1237 0
1236 -1237 0
73 -1236 1237 0
-80 -1238 0
-81 -1238 0
80 81 1238 0
-82 -1239 0
-83 -1239 0
82 83 1239 0
1238 -1240 0
1239 -1240 0
-1238 -1239 1240 0
-8 -1241 0
24 -1241 0
8 -24 1241 0
8 -1242 0
-24 -1242 0
-8 24 1242 0
-85 -1243 0
-86 -1243 0
85 86 1243 0
-87 -1244 0
1236 -1244 0
87 -1236 1244 0
-84 -1245 0
-88 -1245 0
84 88 1245 0
-84 -1246 0
89 -1246 0
84 -89 1246 0
84 -1247 0
-89 -1247 0
-84 89 1247 0
-90 -1248 0
-91 -1248 0
90 91 1248 0
-3 -1249 0
19 -1249 0
3 -19 1249 0
3 -1250 0
-19 -1250 0
-3 19 1250 0
-93 -1251 0
-94 -1251 0
93 94 1251 0
-2 -1252 0
18 -1252 0
2 -18 1252 0
2 -1253 0
-18 -1253 0
-2 18 1253 0
-96 -1254 0
-97 -1254 0
96 97 1254 0
-1 -1255 0
17 -1255 0
1 -17 1255 0
1 -1256 0
-17 -1256 0
-1 17 1256 0
-99 -1257 0
-100 -1257 0
99 100 1257 0
-20 -1258 0
-102 -1258 0
20 102 1258 0
-19 -1259 0
-104 -1259 0
19 104 1259 0
-18 -1260 0
-106 -1260 0
18 106 1260 0
-17 -1261 0
-108 -1261 0
17 108 1261 0
-101 -1262 0
-107 -1262 0
101 107 1262 0
-98 -1263 0
-101 -1263 0
98 101 1263 0
-105 -1264 0
1263 -1264 0
105 -1263 1264 0
-95 -1265 0
1263 -1265 0
95 -1263 1265 0
-103 -1266 0
1265 -1266 0
103 -1265 1266 0
-110 -1267 0
-111 -1267 0
110 111 1267 0
-112 -1268 0
-113 -1268 0
112 113 1268 0
1267 -1269 0
1268 -1269 0
-1267 -1268 1269 0
-4 -1270 0
20 -1270 0
4 -20 1270 0
4 -1271 0
-20 -1271 0
-4 20 1271 0
-115 -1272 0
-116 -1272 0
115 116 1272 0
-117 -1273 0
1265 -1273 0
117 -1265 1273 0
-114 -1274 0
-118 -1274 0
114 118 1274 0
-114 -1275 0
119 -1275 0
114 -119 1275 0
114 -1276 0
-119 -1276 0
-114 119 1276 0
-120 -1277 0
-121 -1277 0
120 121 1277 0
-15 -1278 0
31 -1278 0
15 -31 1278 0
15 -1279 0
-31 -1279 0
-15 31 1279 0
-123 -1280 0
-124 -1280 0
123 124 1280 0
-14 -1281 0
30 -1281 0
14 -30 1281 0
14 -1282 0
-30 -1282 0
-14 30 1282 0
-126 -1283 0
-127 -1283 0
126 127 1283 0
-13 -1284 0
29 -1284 0
13 -29 1284 0
13 -1285 0
-29 -1285 0
-13 29 1285 0
-129 -1286 0
-130 -1286 0
129 130 1286 0
-32 -1287 0
-132 -1287 0
32 132 1287 0
-31 -1288 0
-134 -1288 0
31 134 1288 0
-30 -1289 0
-136 -1289 0
30 136 1289 0
-29 -1290 0
-138 -1290 0
29 138 1290 0
-131 -1291 0
-137 -1291 0
131 137 1291 0
-128 -1292 0
-131 -1292 0
128 131 1292 0
-135 -1293 0
1292 -1293 0
135 -1292 1293 0
-125 -1294 0
1292 -1294 0
125 -1292 1294 0
-133 -1295 0
1294 -1295 0
133 -1294 1295 0
-140 -1296 0
-141 -1296 0
140 141 1296 0
-142 -1297 0
-143 -1297 0
142 143 1297 0
1296 -1298 0
1297 -1298 0
-1296 -1297 1298 0
-16 -1299 0
32 -1299 0
16 -32 1299 0
16 -1300 0
-32 -1300 0
-16 32 1300 0
-145 -1301 0
-146 -1301 0
145 146 1301 0
-147 -1302 0
1294 -1302 0
147 -1294 1302 0
-144 -1303 0
-148 -1303 0
144 148 1303 0
-149 -1304 0
-150 -1304 0
149 150 1304 0
-59 -1305 0
-152 -1305 0
59 152 1305 0
-89 -1306 0
-154 -1306 0
89 154 1306 0
-119 -1307 0
-156 -1307 0
119 156 1307 0
-122 -1308 0
-155 -1308 0
122 155 1308 0
-92 -1309 0
-122 -1309 0
92 122 1309 0
-153 -1310 0
1309 -1310 0
153 -1309 1310 0
-62 -1311 0
1309 -1311 0
62 -1309 1311 0
-151 -1312 0
1311 -1312 0
151 -1311 1312 0
-158 -1313 0
-159 -1313 0
158 159 1313 0
-160 -1314 0
-161 -1314 0
160 161 1314 0
1313 -1315 0
1314 -1315 0
-1313 -1314 1315 0
-144 -1316 0
149 -1316 0
144 -149 1316 0
144 -1317 0
-149 -1317 0
-144 149 1317 0
-163 -1318 0
-164 -1318 0
163 164 1318 0
-165 -1319 0
1311 -1319 0
165 -1311 1319 0
-162 -1320 0
-166 -1320 0
162 166 1320 0
-190 -1321 0
-191 -1321 0
190 191 1321 0
-193 -1322 0
-194 -1322 0
193 194 1322 0
-196 -1323 0
-197 -1323 0
196 197 1323 0
-28 -1324 0
-199 -1324 0
28 199 1324 0
-27 -1325 0
-201 -1325 0
27 201 1325 0
-26 -1326 0
-203 -1326 0
26 203 1326 0
-25 -1327 0
-205 -1327 0
25 205 1327 0
-198 -1328 0
-204 -1328 0
198 204 1328 0
-195 -1329 0
-198 -1329 0
195 198 1329 0
-202 -1330 0
1329 -1330 0
202 -1329 1330 0
-192 -1331 0
1329 -1331 0
192 -1329 1331 0
-200 -1332 0
1331 -1332 0
200 -1331 1332 0
-207 -1333 0
-208 -1333 0
207 208 1333 0
-209 -1334 0
-210 -1334 0
209 210 1334 0
1333 -1335 0
1334 -1335 0
-1333 -1334 1335 0
-212 -1336 0
-213 -1336 0
212 213 1336 0
-214 -1337 0
1331 -1337 0
214 -1331 1337 0
-211 -1338 0
-215 -1338 0
211 215 1338 0
-211 -1339 0
216 -1339 0
211 -216 1339 0
211 -1340 0
-216 -1340 0
-211 216 1340 0
-217 -1341 0
-218 -1341 0
217 218 1341 0
-220 -1342 0
-221 -1342 0
220 221 1342 0
-223 -1343 0
-224 -1343 0
223 224 1343 0
-24 -1344 0
-226 -1344 0
24 226 1344 0
-23 -1345 0
-228 -1345 0
23 228 1345 0
-22 -1346 0
-230 -1346 0
22 230 1346 0
-225 -1347 0
-231 -1347 0
225 231 1347 0
-222 -1348 0
-225 -1348 0
222 225 1348 0
-229 -1349 0
1348 -1349 0
229 -1348 1349 0
-232 -1350 0
-233 -1350 0
232 233 1350 0
-234 -1351 0
-235 -1351 0
234 235 1351 0
1350 -1352 0
1351 -1352 0
-1350 -1351 1352 0
-237 -1353 0
-238 -1353 0
237 238 1353 0
-236 -1354 0
-240 -1354 0
236 240 1354 0
-236 -1355 0
241 -1355 0
236 -241 1355 0
236 -1356 0
-241 -1356 0
-236 241 1356 0
-242 -1357 0
-243 -1357 0
242 243 1357 0
-245 -1358 0
-246 -1358 0
245 246 1358 0
-248 -1359 0
-249 -1359 0
248 249 1359 0
-251 -1360 0
-252 -1360 0
251 252 1360 0
-254 -1361 0
-255 -1361 0
254 255 1361 0
-32 -1362 0
-257 -1362 0
32 257 1362 0
-31 -1363 0
-259 -1363 0
31 259 1363 0
-30 -1364 0
-261 -1364 0
30 261 1364 0
-256 -1365 0
-262 -1365 0
256 262 1365 0
-253 -1366 0
-256 -1366 0
253 256 1366 0
-260 -1367 0
1366 -1367 0
260 -1366 1367 0
-250 -1368 0
1366 -1368 0
250 -1366 1368 0
-258 -1369 0
1368 -1369 0
258 -1368 1369 0
-263 -1370 0
-264 -1370 0
263 264 1370 0
-265 -1371 0
-266 -1371 0
265 266 1371 0
1370 -1372 0
1371 -1372 0
-1370 -1371 1372 0
-268 -1373 0
-269 -1373 0
268 269 1373 0
-270 -1374 0
1368 -1374 0
270 -1368 1374 0
-267 -1375 0
-271 -1375 0
267 271 1375 0
-272 -1376 0
-273 -1376 0
272 273 1376 0
-216 -1377 0
-275 -1377 0
216 275 1377 0
-241 -1378 0
-277 -1378 0
241 277 1378 0
246 -1379 0
-279 -1379 0
-246 279 1379 0
-247 -1380 0
-278 -1380 0
247 278 1380 0
-244 -1381 0
-247 -1381 0
244 247 1381 0
-276 -1382 0
1381 -1382 0
276 -1381 1382 0
-219 -1383 0
1381 -1383 0
219 -1381 1383 0
-274 -1384 0
1383 -1384 0
274 -1383 1384 0
-281 -1385 0
-282 -1385 0
281 282 1385 0
-283 -1386 0
-284 -1386 0
283 284 1386 0
1385 -1387 0
1386 -1387 0
-1385 -1386 1387 0
-267 -1388 0
272 -1388 0
267 -272 1388 0
267 -1389 0
-272 -1389 0
-267 272 1389 0
-286 -1390 0
-287 -1390 0
286 287 1390 0
-288 -1391 0
1383 -1391 0
288 -1383 1391 0
-285 -1392 0
-289 -1392 0
285 289 1392 0
-291 -1393 0
-292 -1393 0
291 292 1393 0
-294 -1394 0
-295 -1394 0
294 295 1394 0
-20 -1395 0
-297 -1395 0
20 297 1395 0
-19 -1396 0
-299 -1396 0
19 299 1396 0
-18 -1397 0
-301 -1397 0
18 301 1397 0
-17 -1398 0
-303 -1398 0
17 303 1398 0
-305 -1399 0
-306 -1399 0
305 306 1399 0
167 -1400 0
-290 -1400 0
-167 290 1400 0
-167 -1401 0
290 -1401 0
167 -290 1401 0
-1400 -1402 0
-1401 -1402 0
1400 1401 1402 0
166 -1403 0
-289 -1403 0
-166 289 1403 0
-166 -1404 0
289 -1404 0
166 -289 1404 0
-1403 -1405 0
-1404 -1405 0
1403 1404 1405 0
162 -1406 0
-285 -1406 0
-162 285 1406 0
-162 -1407 0
285 -1407 0
162 -285 1407 0
-1406 -1408 0
-1407 -1408 0
1406 1407 1408 0
309 -1409 0
310 -1409 0
-309 -310 1409 0
311 -1410 0
1409 -1410 0
-311 -1409 1410 0
-3 -1411 0
-174 -1411 0
3 174 1411 0
3 -1412 0
174 -1412 0
-3 -174 1412 0
-1411 -1413 0
-1412 -1413 0
1411 1412 1413 0
-19 -1414 0
-175 -1414 0
19 175 1414 0
19 -1415 0
175 -1415 0
-19 -175 1415 0
-1414 -1416 0
-1415 -1416 0
1414 1415 1416 0
-5 -1417 0
-176 -1417 0
5 176 1417 0
5 -1418 0
176 -1418 0
-5 -176 1418 0
-1417 -1419 0
-1418 -1419 0
1417 1418 1419 0
-21 -1420 0
-177 -1420 0
21 177 1420 0
21 -1421 0
177 -1421 0
-21 -177 1421 0
-1420 -1422 0
-1421 -1422 0
1420 1421 1422 0
-7 -1423 0
-178 -1423 0
7 178 1423 0
7 -1424 0
178 -1424 0
-7 -178 1424 0
-1423 -1425 0
-1424 -1425 0
1423 1424 1425 0
-23 -1426 0
-179 -1426 0
23 179 1426 0
23 -1427 0
179 -1427 0
-23 -179 1427 0
-1426 -1428 0
-1427 -1428 0
1426 1427 1428 0
-13 -1429 0
-180 -1429 0
13 180 1429 0
13 -1430 0
180 -1430 0
-13 -180 1430 0
-1429 -1431 0
-1430 -1431 0
1429 1430 1431 0
-29 -1432 0
-181 -1432 0
29 181 1432 0
29 -1433 0
181 -1433 0
-29 -181 1433 0
-1432 -1434 0
-1433 -1434 0
1432 1433 1434 0
-183 -1435 0
-293 -1435 0
183 293 1435 0
183 -1436 0
293 -1436 0
-183 -293 1436 0
-1435 -1437 0
-1436 -1437 0
1435 1436 1437 0
-184 -1438 0
-296 -1438 0
184 296 1438 0
184 -1439 0
296 -1439 0
-184 -296 1439 0
-1438 -1440 0
-1439 -1440 0
1438 1439 1440 0
-185 -1441 0
298 -1441 0
185 -298 1441 0
-1271 -1442 0
-1441 -1442 0
1271 1441 1442 0
185 -1443 0
-298 -1443 0
-185 298 1443 0
1271 -1444 0
-1443 -1444 0
-1271 1443 1444 0
-1442 -1445 0
-1444 -1445 0
1442 1444 1445 0
-186 -1446 0
-300 -1446 0
186 300 1446 0
186 -1447 0
300 -1447 0
-186 -300 1447 0
-1446 -1448 0
-1447 -1448 0
1446 1447 1448 0
-187 -1449 0
-1253 -1449 0
187 1253 1449 0
187 -1450 0
1253 -1450 0
-187 -1253 1450 0
-1449 -1451 0
-1450 -1451 0
1449 1450 1451 0
-188 -1452 0
-1256 -1452 0
188 1256 1452 0
188 -1453 0
1256 -1453 0
-188 -1256 1453 0
-1452 -1454 0
-1453 -1454 0
1452 1453 1454 0
-189 -1455 0
-308 -1455 0
189 308 1455 0
189 -1456 0
308 -1456 0
-189 -308 1456 0
-1455 -1457 0
-1456 -1457 0
1455 1456 1457 0
